0 55264 
1 52634 
2 52536 
3 52410 
4 50084 
5 49532 
6 49208 
7 48872 
8 48776 
9 48392 
10 48174 
11 47754 
12 47730 
13 47364 
14 45568 
15 45236 
16 45160 
17 44968 
18 43752 
19 40266 
20 40174 
21 39586 
22 39472 
23 38914 
24 35518 
25 32840 
26 32804 
27 31978 
28 29880 
29 29010 
30 26724 
31 26602 
32 26488 
33 25720 
34 25594 
35 25240 
36 25066 
37 23040 
38 23034 
39 22958 
40 21440 
41 20764 
42 20214 
43 20030 
44 18554 
45 16258 
46 15958 
47 13980 
48 13452 
49 13272 
50 13254 
51 12856 
52 12812 
53 12248 
54 12224 
55 12028 
56 11952 
57 11952 

